commons/LK_FILES/TIC16-10-10-4.tsp
NAME: TIC16-10-10-4
TYPE: TSP
COMMENT: TSP
DIMENSION: 5
EDGE_WEIGHT_TYPE: EXPLICIT
EDGE_WEIGHT_FORMAT: FULL_MATRIX
EDGE_WEIGHT_SECTION
0 157 244 142 82 
157 0 467 490 399 
244 467 0 250 194 
142 490 250 0 384 
82 399 194 384 0 
EOF
